decision_x1=[0,2];
decision_x2=[0,2];
decision_x3=[0,2];
decision_x4=[0,2];
decision_x5=[0,2];
decision_x6=[0,2];
decision_x7=[0,2];
decision_x8=[0,2];
decision_x9=[0,2];
decision_x10=[0,2];
decision_x11=[0,2];
decision_x12=[0,2];
decision_x13=[0,2];
decision_x14=[0,2];
decision_x15=[0,2];
random_y1=[0,2];
random_y2=[0,2];
random_y3=[0,2];
constraint_x2_x1=[
0,0,7.5|
0,1,3|
0,2,6.6|
1,0,8.2|
1,1,2.9|
1,2,4.3|
2,0,6.4|
2,1,5.4|
2,2,9.3|
];
constraint_x3_x2=[
0,0,7.2|
0,1,8.5|
0,2,6.7|
1,0,5.6|
1,1,9.5|
1,2,9.6|
2,0,8.8|
2,1,0.51|
2,2,3.6|
];
constraint_x4_x2=[
0,0,4.1|
0,1,7.7|
0,2,8.9|
1,0,9.7|
1,1,6.6|
1,2,4.9|
2,0,6.1|
2,1,9.9|
2,2,0.73|
];
constraint_x4_x3=[
0,0,7.8|
0,1,0.4|
0,2,0.25|
1,0,5.1|
1,1,5.4|
1,2,5.6|
2,0,6.1|
2,1,7.6|
2,2,7.3|
];
constraint_x5_x1=[
0,0,2.4|
0,1,5.3|
0,2,5.2|
1,0,3.1|
1,1,4.6|
1,2,8.9|
2,0,7.5|
2,1,8.1|
2,2,3.5|
];
constraint_x5_x3=[
0,0,1.4|
0,1,3.7|
0,2,7.8|
1,0,3.2|
1,1,6.6|
1,2,5|
2,0,9.3|
2,1,2.8|
2,2,7.9|
];
constraint_x6_x1=[
0,0,9.2|
0,1,6|
0,2,1.8|
1,0,1.1|
1,1,5.3|
1,2,7.9|
2,0,5.1|
2,1,8.4|
2,2,1.3|
];
constraint_x6_x2=[
0,0,5.7|
0,1,4|
0,2,4.1|
1,0,9.1|
1,1,5.7|
1,2,7.3|
2,0,2.1|
2,1,4.5|
2,2,3.7|
];
constraint_x6_x5=[
0,0,5.2|
0,1,8|
0,2,8.6|
1,0,3.1|
1,1,1.7|
1,2,0.011|
2,0,5.5|
2,1,3.2|
2,2,9|
];
constraint_x7_x2=[
0,0,7.2|
0,1,7|
0,2,6.4|
1,0,8.2|
1,1,9.9|
1,2,6.1|
2,0,4.8|
2,1,5.7|
2,2,9.6|
];
constraint_x8_x1=[
0,0,2.1|
0,1,2.3|
0,2,4.4|
1,0,3|
1,1,9.5|
1,2,1.7|
2,0,6.5|
2,1,2.6|
2,2,6.6|
];
constraint_x8_x2=[
0,0,7.6|
0,1,4.8|
0,2,4.4|
1,0,5|
1,1,5.1|
1,2,4.5|
2,0,6.7|
2,1,9.2|
2,2,3.9|
];
constraint_x8_x3=[
0,0,0.85|
0,1,6.3|
0,2,8.8|
1,0,3.2|
1,1,1.8|
1,2,7.6|
2,0,5.9|
2,1,8.7|
2,2,5.2|
];
constraint_x8_x4=[
0,0,1.9|
0,1,2.3|
0,2,3.9|
1,0,0.66|
1,1,6.9|
1,2,9.8|
2,0,5.3|
2,1,1.2|
2,2,6.8|
];
constraint_x8_x5=[
0,0,0.96|
0,1,5|
0,2,1.5|
1,0,4.6|
1,1,6.8|
1,2,2|
2,0,7.3|
2,1,3.5|
2,2,1.8|
];
constraint_x8_x6=[
0,0,2.4|
0,1,2.3|
0,2,6.8|
1,0,6.5|
1,1,3.7|
1,2,9.3|
2,0,3.6|
2,1,4.6|
2,2,2.3|
];
constraint_x8_x7=[
0,0,7.5|
0,1,7|
0,2,1.1|
1,0,0.43|
1,1,9.2|
1,2,8.3|
2,0,4.6|
2,1,8.7|
2,2,9.5|
];
constraint_x9_x2=[
0,0,1.9|
0,1,4.8|
0,2,5.5|
1,0,1.7|
1,1,8.6|
1,2,8.6|
2,0,2.1|
2,1,7.8|
2,2,8.6|
];
constraint_x9_x4=[
0,0,9|
0,1,2.9|
0,2,3.8|
1,0,1.1|
1,1,3.1|
1,2,6.1|
2,0,2.5|
2,1,0.32|
2,2,3.2|
];
constraint_x9_x5=[
0,0,2.6|
0,1,0.053|
0,2,5.5|
1,0,9.3|
1,1,5.9|
1,2,5.6|
2,0,8.9|
2,1,6.6|
2,2,0.5|
];
constraint_x9_x8=[
0,0,9.1|
0,1,7.2|
0,2,9.2|
1,0,9.7|
1,1,1.7|
1,2,1.2|
2,0,3.2|
2,1,3.4|
2,2,2.5|
];
constraint_x10_x2=[
0,0,0.52|
0,1,9.9|
0,2,0.88|
1,0,1.6|
1,1,7.9|
1,2,4.1|
2,0,5.3|
2,1,7.4|
2,2,3.3|
];
constraint_x10_x3=[
0,0,8.2|
0,1,9.7|
0,2,3.3|
1,0,5.3|
1,1,2.4|
1,2,8.1|
2,0,2.1|
2,1,7|
2,2,8|
];
constraint_x10_x9=[
0,0,4.2|
0,1,0.59|
0,2,2.2|
1,0,9.7|
1,1,1.4|
1,2,1.6|
2,0,3.6|
2,1,6.2|
2,2,1|
];
constraint_x11_x1=[
0,0,8.8|
0,1,2.5|
0,2,7.9|
1,0,7.3|
1,1,9.7|
1,2,7.2|
2,0,3.5|
2,1,8.1|
2,2,2.7|
];
constraint_x11_x4=[
0,0,7.4|
0,1,4.4|
0,2,3.7|
1,0,6.6|
1,1,0.62|
1,2,2.9|
2,0,2|
2,1,1.6|
2,2,1.9|
];
constraint_x11_x6=[
0,0,7.4|
0,1,4.3|
0,2,1.7|
1,0,9.2|
1,1,3.6|
1,2,10|
2,0,0.24|
2,1,0.34|
2,2,8.5|
];
constraint_x11_x9=[
0,0,7.3|
0,1,1.4|
0,2,6.3|
1,0,3.2|
1,1,8.1|
1,2,5|
2,0,4.5|
2,1,0.092|
2,2,0.81|
];
constraint_x12_x1=[
0,0,9.1|
0,1,0.13|
0,2,9.1|
1,0,7.1|
1,1,6.4|
1,2,0.99|
2,0,2.1|
2,1,5.1|
2,2,8.6|
];
constraint_x12_x5=[
0,0,9.9|
0,1,3.9|
0,2,4.4|
1,0,7.1|
1,1,6|
1,2,0.25|
2,0,6.4|
2,1,7.7|
2,2,7|
];
constraint_x12_x6=[
0,0,0.96|
0,1,10|
0,2,1.4|
1,0,0.12|
1,1,1.6|
1,2,7.1|
2,0,5.9|
2,1,1.8|
2,2,0.88|
];
constraint_x12_x8=[
0,0,2.5|
0,1,6.7|
0,2,4.3|
1,0,2.7|
1,1,1.7|
1,2,5.7|
2,0,7.6|
2,1,4.6|
2,2,8.7|
];
constraint_x12_x9=[
0,0,3.7|
0,1,2.8|
0,2,4.1|
1,0,8|
1,1,9.8|
1,2,2.7|
2,0,9.6|
2,1,8.4|
2,2,0.79|
];
constraint_x12_x11=[
0,0,6.6|
0,1,5.1|
0,2,2.5|
1,0,1.3|
1,1,4.3|
1,2,6.6|
2,0,4.7|
2,1,3.5|
2,2,6.1|
];
constraint_x13_x1=[
0,0,8.9|
0,1,0.95|
0,2,2.4|
1,0,5.3|
1,1,2.8|
1,2,9.8|
2,0,9.3|
2,1,1.5|
2,2,6.1|
];
constraint_x13_x2=[
0,0,7.7|
0,1,8.2|
0,2,0.68|
1,0,0.46|
1,1,6.8|
1,2,3.4|
2,0,0.99|
2,1,8.6|
2,2,0.83|
];
constraint_x13_x3=[
0,0,2.4|
0,1,6.3|
0,2,5.6|
1,0,2.7|
1,1,3.7|
1,2,6.2|
2,0,4.8|
2,1,0.95|
2,2,1.9|
];
constraint_x13_x4=[
0,0,1.4|
0,1,9.8|
0,2,7.5|
1,0,9.6|
1,1,4.4|
1,2,7.4|
2,0,2.4|
2,1,0.9|
2,2,2.7|
];
constraint_x13_x8=[
0,0,3.2|
0,1,8.4|
0,2,5.9|
1,0,4.7|
1,1,7.7|
1,2,1.2|
2,0,3.5|
2,1,7.6|
2,2,4|
];
constraint_x13_x9=[
0,0,8.7|
0,1,4.6|
0,2,9.6|
1,0,4.5|
1,1,0.88|
1,2,7.6|
2,0,1.2|
2,1,5.4|
2,2,6.9|
];
constraint_x14_x4=[
0,0,3.4|
0,1,4.7|
0,2,4.7|
1,0,0.9|
1,1,7.9|
1,2,1.8|
2,0,2.3|
2,1,6.8|
2,2,0.71|
];
constraint_x14_x6=[
0,0,2.9|
0,1,3.2|
0,2,6.5|
1,0,8.3|
1,1,7.1|
1,2,3.1|
2,0,8.7|
2,1,2.3|
2,2,8.8|
];
constraint_x14_x7=[
0,0,1.8|
0,1,8|
0,2,2.7|
1,0,9.1|
1,1,1.4|
1,2,1.9|
2,0,1.1|
2,1,0.7|
2,2,9.4|
];
constraint_x14_x9=[
0,0,5.5|
0,1,1.8|
0,2,3.7|
1,0,8.7|
1,1,7.4|
1,2,6.1|
2,0,5.9|
2,1,0.02|
2,2,1.6|
];
constraint_x15_x2=[
0,0,0.019|
0,1,0.19|
0,2,9.7|
1,0,1.5|
1,1,3.6|
1,2,7.4|
2,0,1.2|
2,1,6.5|
2,2,0.46|
];
constraint_x15_x3=[
0,0,0.99|
0,1,8|
0,2,3.1|
1,0,6.8|
1,1,1.6|
1,2,1.1|
2,0,6.4|
2,1,2.2|
2,2,1.4|
];
constraint_x15_x4=[
0,0,1.4|
0,1,8.5|
0,2,0.32|
1,0,4.7|
1,1,6.3|
1,2,0.58|
2,0,3.3|
2,1,7.6|
2,2,4.7|
];
constraint_x15_x5=[
0,0,1.1|
0,1,8.5|
0,2,6.4|
1,0,0.56|
1,1,4.1|
1,2,3.5|
2,0,2.8|
2,1,7|
2,2,6.3|
];
constraint_x15_x8=[
0,0,8.6|
0,1,1.2|
0,2,2.3|
1,0,9.9|
1,1,5.4|
1,2,3.8|
2,0,0.18|
2,1,7|
2,2,3.9|
];
constraint_x15_x9=[
0,0,6.7|
0,1,7.4|
0,2,1.7|
1,0,4.7|
1,1,3|
1,2,7.7|
2,0,5.8|
2,1,7.3|
2,2,4.1|
];
constraint_x15_x10=[
0,0,4.6|
0,1,0.63|
0,2,9.9|
1,0,1.9|
1,1,4.9|
1,2,7.8|
2,0,7|
2,1,4.7|
2,2,7.8|
];
constraint_x15_x11=[
0,0,8.6|
0,1,5|
0,2,0.13|
1,0,6.3|
1,1,1.9|
1,2,5.2|
2,0,7.6|
2,1,6.9|
2,2,5.1|
];
constraint_x15_x14=[
0,0,1.9|
0,1,2|
0,2,1.7|
1,0,5|
1,1,0.22|
1,2,2.1|
2,0,7.9|
2,1,1|
2,2,8.1|
];
constraint_x1_y1=[
0,0,10|
0,1,3.1|
0,2,2.4|
1,0,4.6|
1,1,3.4|
1,2,9.8|
2,0,1.8|
2,1,1.6|
2,2,7.2|
];
constraint_x2_y2=[
0,0,8.4|
0,1,9.2|
0,2,8.3|
1,0,9.1|
1,1,9.7|
1,2,0.89|
2,0,4.3|
2,1,5.6|
2,2,9.3|
];
constraint_x3_y3=[
0,0,3.2|
0,1,6.6|
0,2,3.5|
1,0,7.9|
1,1,9.5|
1,2,9.5|
2,0,6.5|
2,1,6.3|
2,2,7|
];
initial_distribution_y1=[0.77,0.083,0.15];
initial_distribution_y2=[0.35,0.18,0.47];
initial_distribution_y3=[0.44,0.22,0.33];
transition_y1=[
0.17,0.36,0.47|
0.35,0.32,0.33|
0.55,0.21,0.24|
];
transition_y2=[
0.27,0.47,0.25|
0.065,0.67,0.26|
0.08,0.82,0.098|
];
transition_y3=[
0.3,0.51,0.19|
0.28,0.35,0.36|
0.53,0.14,0.32|
];
